data;

param num_top:=6;

#nodes and edges of the physical network
param n := 10;

set E := (1,2) (1,3) (1,7) (2,4) (2,7) (3,5) (4,8) (5,6) (5,7) (6,7) (6,9) (7,8) (7,9) (8,10) (9,10) ;

#nodes and edges of the virtual networks
set Nl[1] := 10 8 5 1 ;
set Nl[2] := 6 1 2 7 ;
set Nl[3] := 5 9 10 7 3 ;
set Nl[4] := 4 8 7 1 9 ;
set Nl[5] := 2 10 3 9 ;
set Nl[6] := 10 9 1 2 8 ;

set El[1] := (8,10) (5,8) (1,5) (1,10) ;
set El[2] := (1,6) (1,2) (2,7) (6,7) (1,7) (2,6) ;
set El[3] := (5,9) (9,10) (7,10) (3,7) (3,5) ;
set El[4] := (4,8) (7,8) (1,7) (1,9) (4,9) (8,9) (1,4) (4,7) (1,8) (7,9) ;
set El[5] := (2,10) (3,10) (3,9) (2,9) (9,10) (2,3) ;
set El[6] := (9,10) (1,9) (1,2) (2,8) (8,10) ;
